2 
5 
8 
11 
18 
19 
22 2147483656 2147483676 2147483691 2147483753 2147483789 2147483899 
23 
24 
25 2147483656 2147483676 2147483691 2147483753 2147483789 2147483899 
26 2147483656 2147483676 2147483691 2147483753 2147483789 2147483899 
27 2147483656 2147483676 2147483691 2147483753 2147483789 2147483899 
32 2147483656 2147483676 2147483691 2147483753 2147483789 2147483899 
49 2147483660 2147483672 2147483674 2147483680 2147483693 2147483704 2147483714 2147483715 2147483716 2147483717 2147483718 2147483747 2147483783 2147483800 2147483814 2147483829 2147483843 2147483860 2147483881 2147483896 2147483900 2147483903 2147483910 2147483918 2147483919 2147483921 2147483926 2147483928 
50 
51 
52 2147483660 2147483672 2147483674 2147483680 2147483693 2147483704 2147483714 2147483715 2147483716 2147483717 2147483718 2147483747 2147483783 2147483800 2147483814 2147483829 2147483843 2147483860 2147483881 2147483896 2147483900 2147483903 2147483910 2147483918 2147483919 2147483921 2147483926 2147483928 
53 2147483660 2147483672 2147483674 2147483680 2147483693 2147483704 2147483714 2147483715 2147483716 2147483717 2147483718 2147483747 2147483783 2147483800 2147483814 2147483829 2147483843 2147483860 2147483881 2147483896 2147483900 2147483903 2147483910 2147483918 2147483919 2147483921 2147483926 2147483928 
54 2147483660 2147483672 2147483674 2147483680 2147483693 2147483704 2147483714 2147483715 2147483716 2147483717 2147483718 2147483747 2147483783 2147483800 2147483814 2147483829 2147483843 2147483860 2147483881 2147483896 2147483900 2147483903 2147483910 2147483918 2147483919 2147483921 2147483926 2147483928 
57 2147483660 2147483672 2147483674 2147483680 2147483693 2147483704 2147483714 2147483715 2147483716 2147483717 2147483718 2147483747 2147483783 2147483800 2147483814 2147483829 2147483843 2147483860 2147483881 2147483896 2147483900 2147483903 2147483910 2147483918 2147483919 2147483921 2147483926 2147483928 
61 
127 2147483660 2147483672 2147483674 2147483680 2147483693 2147483704 2147483714 2147483715 2147483716 2147483717 2147483718 2147483747 2147483783 2147483800 2147483814 2147483829 2147483843 2147483860 2147483881 2147483896 2147483900 2147483903 2147483910 2147483918 2147483919 2147483921 2147483926 2147483928 
128 2147483660 2147483672 2147483674 2147483680 2147483693 2147483704 2147483714 2147483715 2147483716 2147483717 2147483718 2147483747 2147483783 2147483800 2147483814 2147483829 2147483843 2147483860 2147483881 2147483896 2147483900 2147483903 2147483910 2147483918 2147483919 2147483921 2147483926 2147483928 
129 2147483660 2147483672 2147483674 2147483680 2147483693 2147483704 2147483714 2147483715 2147483716 2147483717 2147483718 2147483747 2147483783 2147483800 2147483814 2147483829 2147483843 2147483860 2147483881 2147483896 2147483900 2147483903 2147483910 2147483918 2147483919 2147483921 2147483926 2147483928 
130 2147483660 2147483672 2147483674 2147483680 2147483693 2147483704 2147483714 2147483715 2147483716 2147483717 2147483718 2147483747 2147483783 2147483800 2147483814 2147483829 2147483843 2147483860 2147483881 2147483896 2147483900 2147483903 2147483910 2147483918 2147483919 2147483921 2147483926 2147483928 
131 
132 
133 
134 
247 
248 
249 
250 
251 
252 
253 
254 
263 2147483656 2147483676 2147483691 2147483753 2147483789 2147483899 
264 2147483656 2147483676 2147483691 2147483753 2147483789 2147483899 
265 2147483656 2147483676 2147483691 2147483753 2147483789 2147483899 
266 2147483656 2147483676 2147483691 2147483753 2147483789 2147483899 
267 
268 
269 
270 
2147483656 2147483714 2147483715 2147483716 2147483717 2147483718 2147483739 2147483743 2147483747 2147483900 2147483903 2147483925 2147483928 22 25 27 32 26 263 264 265 266 2147483714 2147483715 2147483716 2147483717 2147483718 2147483739 2147483743 2147483747 2147483900 2147483903 2147483925 2147483928 
2147483660 2147483714 2147483715 2147483716 2147483717 2147483718 2147483751 2147483752 2147483900 2147483903 2147483928 49 52 54 57 53 127 128 129 130 2147483714 2147483715 2147483716 2147483717 2147483718 2147483751 2147483752 2147483900 2147483903 2147483928 
2147483663 2147483714 2147483715 2147483716 2147483717 2147483718 2147483900 2147483903 2147483928 2147483714 2147483715 2147483716 2147483717 2147483718 2147483900 2147483903 2147483928 
2147483672 2147483674 2147483714 2147483716 2147483717 2147483718 2147483753 2147483910 2147483928 49 52 54 57 53 127 128 129 130 2147483674 2147483714 2147483716 2147483717 2147483718 2147483753 2147483910 2147483928 
2147483674 2147483672 2147483672 2147483676 2147483680 2147483683 2147483691 2147483693 2147483704 2147483714 2147483716 2147483717 2147483718 2147483753 2147483775 2147483779 2147483783 2147483785 2147483787 2147483788 2147483789 2147483791 2147483795 2147483800 2147483808 2147483810 2147483814 2147483816 2147483823 2147483825 2147483829 2147483830 2147483837 2147483839 2147483843 2147483844 2147483853 2147483855 2147483860 2147483863 2147483866 2147483867 2147483875 2147483877 2147483881 2147483882 2147483890 2147483892 2147483896 2147483897 2147483910 2147483918 2147483919 2147483921 2147483926 2147483927 2147483928 49 52 54 57 53 127 128 129 130 2147483676 2147483680 2147483683 2147483691 2147483693 2147483704 2147483714 2147483716 2147483717 2147483718 2147483753 2147483775 2147483779 2147483783 2147483785 2147483787 2147483788 2147483789 2147483791 2147483795 2147483800 2147483808 2147483810 2147483814 2147483816 2147483823 2147483825 2147483829 2147483830 2147483837 2147483839 2147483843 2147483844 2147483853 2147483855 2147483860 2147483863 2147483866 2147483867 2147483875 2147483877 2147483881 2147483882 2147483890 2147483892 2147483896 2147483897 2147483910 2147483918 2147483919 2147483921 2147483926 2147483927 2147483928 
2147483676 2147483674 2147483674 2147483714 2147483716 2147483717 2147483718 2147483753 2147483775 2147483779 2147483783 2147483910 2147483926 2147483927 2147483928 22 25 27 32 26 263 264 265 266 2147483714 2147483716 2147483717 2147483718 2147483753 2147483775 2147483779 2147483783 2147483910 2147483926 2147483927 2147483928 
2147483680 2147483674 2147483674 2147483714 2147483716 2147483717 2147483718 2147483753 2147483787 2147483788 2147483910 2147483926 2147483928 49 52 54 57 53 127 128 129 130 2147483714 2147483716 2147483717 2147483718 2147483753 2147483787 2147483788 2147483910 2147483926 2147483928 
2147483683 2147483674 2147483674 2147483714 2147483716 2147483717 2147483718 2147483753 2147483910 2147483926 2147483928 2147483714 2147483716 2147483717 2147483718 2147483753 2147483910 2147483926 2147483928 
2147483691 2147483674 2147483674 2147483693 2147483714 2147483717 2147483718 2147483753 2147483789 2147483800 2147483808 2147483810 2147483814 2147483816 2147483823 2147483825 2147483829 2147483830 2147483918 2147483928 22 25 27 32 26 263 264 265 266 2147483693 2147483714 2147483717 2147483718 2147483753 2147483789 2147483800 2147483808 2147483810 2147483814 2147483816 2147483823 2147483825 2147483829 2147483830 2147483918 2147483928 
2147483693 2147483674 2147483691 2147483674 2147483691 2147483714 2147483717 2147483718 2147483753 2147483789 2147483800 2147483814 2147483816 2147483823 2147483825 2147483829 2147483830 2147483837 2147483839 2147483843 2147483918 2147483928 49 52 54 57 53 127 128 129 130 2147483714 2147483717 2147483718 2147483753 2147483789 2147483800 2147483814 2147483816 2147483823 2147483825 2147483829 2147483830 2147483837 2147483839 2147483843 2147483918 2147483928 
2147483704 2147483674 2147483674 2147483714 2147483717 2147483718 2147483753 2147483860 2147483863 2147483866 2147483867 2147483875 2147483877 2147483881 2147483882 2147483890 2147483892 2147483896 2147483918 2147483919 2147483921 2147483928 49 52 54 57 53 127 128 129 130 2147483714 2147483717 2147483718 2147483753 2147483860 2147483863 2147483866 2147483867 2147483875 2147483877 2147483881 2147483882 2147483890 2147483892 2147483896 2147483918 2147483919 2147483921 2147483928 
2147483714 2147483656 2147483660 2147483663 2147483672 2147483674 2147483676 2147483680 2147483683 2147483691 2147483693 2147483704 2147483656 2147483660 2147483663 2147483672 2147483674 2147483676 2147483680 2147483683 2147483691 2147483693 2147483704 2147483715 2147483716 2147483717 2147483718 2147483739 2147483743 2147483747 2147483749 2147483751 2147483752 2147483753 2147483755 2147483775 2147483779 2147483783 2147483785 2147483787 2147483788 2147483789 2147483791 2147483795 2147483800 2147483808 2147483810 2147483814 2147483816 2147483823 2147483825 2147483829 2147483830 2147483837 2147483839 2147483843 2147483844 2147483853 2147483855 2147483860 2147483863 2147483866 2147483867 2147483875 2147483877 2147483881 2147483882 2147483890 2147483892 2147483896 2147483897 2147483899 2147483900 2147483903 2147483910 2147483918 2147483919 2147483921 2147483925 2147483926 2147483927 2147483928 53 49 52 54 57 127 128 129 130 2147483715 2147483716 2147483717 2147483718 2147483739 2147483743 2147483747 2147483749 2147483751 2147483752 2147483753 2147483755 2147483775 2147483779 2147483783 2147483785 2147483787 2147483788 2147483789 2147483791 2147483795 2147483800 2147483808 2147483810 2147483814 2147483816 2147483823 2147483825 2147483829 2147483830 2147483837 2147483839 2147483843 2147483844 2147483853 2147483855 2147483860 2147483863 2147483866 2147483867 2147483875 2147483877 2147483881 2147483882 2147483890 2147483892 2147483896 2147483897 2147483899 2147483900 2147483903 2147483910 2147483918 2147483919 2147483921 2147483925 2147483926 2147483927 2147483928 
2147483715 2147483656 2147483660 2147483663 2147483714 2147483656 2147483660 2147483663 2147483714 2147483716 2147483717 2147483718 2147483739 2147483743 2147483747 2147483749 2147483751 2147483752 2147483755 2147483899 2147483900 2147483903 2147483925 2147483928 57 49 52 54 53 127 128 129 130 2147483716 2147483717 2147483718 2147483739 2147483743 2147483747 2147483749 2147483751 2147483752 2147483755 2147483899 2147483900 2147483903 2147483925 2147483928 
2147483716 2147483656 2147483660 2147483663 2147483672 2147483674 2147483676 2147483680 2147483683 2147483714 2147483715 2147483656 2147483660 2147483663 2147483672 2147483674 2147483676 2147483680 2147483683 2147483714 2147483715 2147483717 2147483718 2147483739 2147483743 2147483747 2147483749 2147483751 2147483752 2147483753 2147483755 2147483775 2147483779 2147483783 2147483785 2147483787 2147483788 2147483791 2147483899 2147483900 2147483903 2147483910 2147483925 2147483926 2147483927 2147483928 57 54 49 52 53 127 128 129 130 2147483717 2147483718 2147483739 2147483743 2147483747 2147483749 2147483751 2147483752 2147483753 2147483755 2147483775 2147483779 2147483783 2147483785 2147483787 2147483788 2147483791 2147483899 2147483900 2147483903 2147483910 2147483925 2147483926 2147483927 2147483928 
2147483717 2147483656 2147483660 2147483663 2147483672 2147483674 2147483676 2147483680 2147483683 2147483691 2147483693 2147483704 2147483714 2147483715 2147483716 2147483656 2147483660 2147483663 2147483672 2147483674 2147483676 2147483680 2147483683 2147483691 2147483693 2147483704 2147483714 2147483715 2147483716 2147483718 2147483739 2147483743 2147483747 2147483749 2147483751 2147483752 2147483753 2147483755 2147483775 2147483779 2147483783 2147483785 2147483787 2147483788 2147483789 2147483791 2147483795 2147483800 2147483808 2147483810 2147483814 2147483816 2147483823 2147483825 2147483829 2147483830 2147483837 2147483839 2147483843 2147483844 2147483853 2147483855 2147483860 2147483863 2147483866 2147483867 2147483875 2147483877 2147483881 2147483882 2147483890 2147483892 2147483896 2147483897 2147483899 2147483900 2147483903 2147483910 2147483918 2147483919 2147483921 2147483925 2147483926 2147483927 2147483928 52 49 54 57 53 127 128 129 130 2147483718 2147483739 2147483743 2147483747 2147483749 2147483751 2147483752 2147483753 2147483755 2147483775 2147483779 2147483783 2147483785 2147483787 2147483788 2147483789 2147483791 2147483795 2147483800 2147483808 2147483810 2147483814 2147483816 2147483823 2147483825 2147483829 2147483830 2147483837 2147483839 2147483843 2147483844 2147483853 2147483855 2147483860 2147483863 2147483866 2147483867 2147483875 2147483877 2147483881 2147483882 2147483890 2147483892 2147483896 2147483897 2147483899 2147483900 2147483903 2147483910 2147483918 2147483919 2147483921 2147483925 2147483926 2147483927 2147483928 
2147483718 2147483656 2147483660 2147483663 2147483672 2147483674 2147483676 2147483680 2147483683 2147483691 2147483693 2147483704 2147483714 2147483715 2147483716 2147483717 2147483656 2147483660 2147483663 2147483672 2147483674 2147483676 2147483680 2147483683 2147483691 2147483693 2147483704 2147483714 2147483715 2147483716 2147483717 2147483739 2147483743 2147483747 2147483749 2147483751 2147483752 2147483753 2147483755 2147483775 2147483779 2147483783 2147483785 2147483787 2147483788 2147483789 2147483791 2147483795 2147483800 2147483808 2147483810 2147483814 2147483816 2147483823 2147483825 2147483829 2147483830 2147483837 2147483839 2147483843 2147483844 2147483853 2147483855 2147483860 2147483863 2147483866 2147483867 2147483875 2147483877 2147483881 2147483882 2147483890 2147483892 2147483896 2147483897 2147483899 2147483900 2147483903 2147483910 2147483918 2147483919 2147483921 2147483925 2147483926 2147483927 2147483928 127 49 52 54 57 53 128 129 130 2147483739 2147483743 2147483747 2147483749 2147483751 2147483752 2147483753 2147483755 2147483775 2147483779 2147483783 2147483785 2147483787 2147483788 2147483789 2147483791 2147483795 2147483800 2147483808 2147483810 2147483814 2147483816 2147483823 2147483825 2147483829 2147483830 2147483837 2147483839 2147483843 2147483844 2147483853 2147483855 2147483860 2147483863 2147483866 2147483867 2147483875 2147483877 2147483881 2147483882 2147483890 2147483892 2147483896 2147483897 2147483899 2147483900 2147483903 2147483910 2147483918 2147483919 2147483921 2147483925 2147483926 2147483927 2147483928 
2147483739 2147483656 2147483714 2147483715 2147483716 2147483717 2147483718 2147483656 2147483714 2147483715 2147483716 2147483717 2147483718 2147483900 2147483903 2147483925 2147483928 2147483900 2147483903 2147483925 2147483928 
2147483743 2147483656 2147483714 2147483715 2147483716 2147483717 2147483718 2147483656 2147483714 2147483715 2147483716 2147483717 2147483718 2147483900 2147483903 2147483928 2147483900 2147483903 2147483928 
2147483747 2147483656 2147483714 2147483715 2147483716 2147483717 2147483718 2147483656 2147483714 2147483715 2147483716 2147483717 2147483718 2147483749 2147483900 2147483903 2147483928 49 52 54 57 53 127 128 129 130 2147483749 2147483900 2147483903 2147483928 
2147483749 2147483714 2147483715 2147483716 2147483717 2147483718 2147483747 2147483714 2147483715 2147483716 2147483717 2147483718 2147483747 2147483900 2147483903 2147483928 2147483900 2147483903 2147483928 
2147483751 2147483660 2147483714 2147483715 2147483716 2147483717 2147483718 2147483660 2147483714 2147483715 2147483716 2147483717 2147483718 2147483900 2147483903 2147483928 2147483900 2147483903 2147483928 
2147483752 2147483660 2147483714 2147483715 2147483716 2147483717 2147483718 2147483660 2147483714 2147483715 2147483716 2147483717 2147483718 2147483900 2147483903 2147483928 2147483900 2147483903 2147483928 
2147483753 2147483672 2147483674 2147483676 2147483680 2147483683 2147483691 2147483693 2147483704 2147483714 2147483716 2147483717 2147483718 2147483672 2147483674 2147483676 2147483680 2147483683 2147483691 2147483693 2147483704 2147483714 2147483716 2147483717 2147483718 2147483775 2147483779 2147483783 2147483785 2147483787 2147483788 2147483789 2147483791 2147483795 2147483800 2147483808 2147483810 2147483814 2147483816 2147483823 2147483825 2147483829 2147483830 2147483837 2147483839 2147483843 2147483844 2147483853 2147483855 2147483860 2147483863 2147483866 2147483867 2147483875 2147483877 2147483881 2147483882 2147483890 2147483892 2147483896 2147483897 2147483903 2147483910 2147483918 2147483919 2147483921 2147483926 2147483927 2147483928 22 25 27 32 26 263 264 265 266 2147483775 2147483779 2147483783 2147483785 2147483787 2147483788 2147483789 2147483791 2147483795 2147483800 2147483808 2147483810 2147483814 2147483816 2147483823 2147483825 2147483829 2147483830 2147483837 2147483839 2147483843 2147483844 2147483853 2147483855 2147483860 2147483863 2147483866 2147483867 2147483875 2147483877 2147483881 2147483882 2147483890 2147483892 2147483896 2147483897 2147483903 2147483910 2147483918 2147483919 2147483921 2147483926 2147483927 2147483928 
2147483755 2147483714 2147483715 2147483716 2147483717 2147483718 2147483714 2147483715 2147483716 2147483717 2147483718 2147483900 2147483903 2147483928 2147483900 2147483903 2147483928 
2147483775 2147483674 2147483676 2147483714 2147483716 2147483717 2147483718 2147483753 2147483674 2147483676 2147483714 2147483716 2147483717 2147483718 2147483753 2147483910 2147483926 2147483927 2147483928 2147483910 2147483926 2147483927 2147483928 
2147483779 2147483674 2147483676 2147483714 2147483716 2147483717 2147483718 2147483753 2147483674 2147483676 2147483714 2147483716 2147483717 2147483718 2147483753 2147483910 2147483926 2147483928 2147483910 2147483926 2147483928 
2147483783 2147483674 2147483676 2147483714 2147483716 2147483717 2147483718 2147483753 2147483674 2147483676 2147483714 2147483716 2147483717 2147483718 2147483753 2147483785 2147483910 2147483926 2147483928 49 52 54 57 53 127 128 129 130 2147483785 2147483910 2147483926 2147483928 
2147483785 2147483674 2147483714 2147483716 2147483717 2147483718 2147483753 2147483783 2147483674 2147483714 2147483716 2147483717 2147483718 2147483753 2147483783 2147483910 2147483926 2147483928 2147483910 2147483926 2147483928 
2147483787 2147483674 2147483680 2147483714 2147483716 2147483717 2147483718 2147483753 2147483674 2147483680 2147483714 2147483716 2147483717 2147483718 2147483753 2147483910 2147483926 2147483928 2147483910 2147483926 2147483928 
2147483788 2147483674 2147483680 2147483714 2147483716 2147483717 2147483718 2147483753 2147483674 2147483680 2147483714 2147483716 2147483717 2147483718 2147483753 2147483910 2147483926 2147483928 2147483910 2147483926 2147483928 
2147483789 2147483674 2147483691 2147483693 2147483714 2147483717 2147483718 2147483753 2147483674 2147483691 2147483693 2147483714 2147483717 2147483718 2147483753 2147483795 2147483800 2147483808 2147483810 2147483814 2147483816 2147483823 2147483825 2147483829 2147483830 2147483837 2147483839 2147483843 2147483844 2147483918 2147483926 2147483928 22 25 27 32 26 263 264 265 266 2147483795 2147483800 2147483808 2147483810 2147483814 2147483816 2147483823 2147483825 2147483829 2147483830 2147483837 2147483839 2147483843 2147483844 2147483918 2147483926 2147483928 
2147483791 2147483674 2147483714 2147483716 2147483717 2147483718 2147483753 2147483674 2147483714 2147483716 2147483717 2147483718 2147483753 2147483910 2147483926 2147483928 2147483910 2147483926 2147483928 
2147483795 2147483674 2147483714 2147483717 2147483718 2147483753 2147483789 2147483674 2147483714 2147483717 2147483718 2147483753 2147483789 2147483928 2147483928 
2147483800 2147483674 2147483691 2147483693 2147483714 2147483717 2147483718 2147483753 2147483789 2147483674 2147483691 2147483693 2147483714 2147483717 2147483718 2147483753 2147483789 2147483814 2147483816 2147483823 2147483825 2147483829 2147483918 2147483928 49 52 54 57 53 127 128 129 130 2147483814 2147483816 2147483823 2147483825 2147483829 2147483918 2147483928 
2147483808 2147483674 2147483691 2147483714 2147483717 2147483718 2147483753 2147483789 2147483674 2147483691 2147483714 2147483717 2147483718 2147483753 2147483789 2147483928 2147483928 
2147483810 2147483674 2147483691 2147483714 2147483717 2147483718 2147483753 2147483789 2147483674 2147483691 2147483714 2147483717 2147483718 2147483753 2147483789 2147483928 2147483928 
2147483814 2147483674 2147483691 2147483693 2147483714 2147483717 2147483718 2147483753 2147483789 2147483800 2147483674 2147483691 2147483693 2147483714 2147483717 2147483718 2147483753 2147483789 2147483800 2147483928 49 52 54 57 53 127 128 129 130 2147483928 
2147483816 2147483674 2147483691 2147483693 2147483714 2147483717 2147483718 2147483753 2147483789 2147483800 2147483674 2147483691 2147483693 2147483714 2147483717 2147483718 2147483753 2147483789 2147483800 2147483928 2147483928 
2147483823 2147483674 2147483691 2147483693 2147483714 2147483717 2147483718 2147483753 2147483789 2147483800 2147483674 2147483691 2147483693 2147483714 2147483717 2147483718 2147483753 2147483789 2147483800 2147483918 2147483928 2147483918 2147483928 
2147483825 2147483674 2147483691 2147483693 2147483714 2147483717 2147483718 2147483753 2147483789 2147483800 2147483674 2147483691 2147483693 2147483714 2147483717 2147483718 2147483753 2147483789 2147483800 2147483918 2147483928 2147483918 2147483928 
2147483829 2147483674 2147483691 2147483693 2147483714 2147483717 2147483718 2147483753 2147483789 2147483800 2147483674 2147483691 2147483693 2147483714 2147483717 2147483718 2147483753 2147483789 2147483800 2147483918 2147483928 49 52 54 57 53 127 128 129 130 2147483918 2147483928 
2147483830 2147483674 2147483691 2147483693 2147483714 2147483717 2147483718 2147483753 2147483789 2147483674 2147483691 2147483693 2147483714 2147483717 2147483718 2147483753 2147483789 2147483918 2147483928 2147483918 2147483928 
2147483837 2147483674 2147483693 2147483714 2147483717 2147483718 2147483753 2147483789 2147483674 2147483693 2147483714 2147483717 2147483718 2147483753 2147483789 2147483928 2147483928 
2147483839 2147483674 2147483693 2147483714 2147483717 2147483718 2147483753 2147483789 2147483674 2147483693 2147483714 2147483717 2147483718 2147483753 2147483789 2147483928 2147483928 
2147483843 2147483674 2147483693 2147483714 2147483717 2147483718 2147483753 2147483789 2147483674 2147483693 2147483714 2147483717 2147483718 2147483753 2147483789 2147483928 49 52 54 57 53 127 128 129 130 2147483928 
2147483844 2147483674 2147483714 2147483717 2147483718 2147483753 2147483789 2147483674 2147483714 2147483717 2147483718 2147483753 2147483789 2147483928 2147483928 
2147483853 2147483674 2147483714 2147483717 2147483718 2147483753 2147483674 2147483714 2147483717 2147483718 2147483753 2147483918 2147483919 2147483928 2147483918 2147483919 2147483928 
2147483855 2147483674 2147483714 2147483717 2147483718 2147483753 2147483674 2147483714 2147483717 2147483718 2147483753 2147483918 2147483919 2147483928 2147483918 2147483919 2147483928 
2147483860 2147483674 2147483704 2147483714 2147483717 2147483718 2147483753 2147483674 2147483704 2147483714 2147483717 2147483718 2147483753 2147483918 2147483919 2147483928 49 52 54 57 53 127 128 129 130 2147483918 2147483919 2147483928 
2147483863 2147483674 2147483704 2147483714 2147483717 2147483718 2147483753 2147483674 2147483704 2147483714 2147483717 2147483718 2147483753 2147483918 2147483919 2147483928 2147483918 2147483919 2147483928 
2147483866 2147483674 2147483704 2147483714 2147483717 2147483718 2147483753 2147483674 2147483704 2147483714 2147483717 2147483718 2147483753 2147483919 2147483921 2147483928 2147483919 2147483921 2147483928 
2147483867 2147483674 2147483704 2147483714 2147483717 2147483718 2147483753 2147483674 2147483704 2147483714 2147483717 2147483718 2147483753 2147483919 2147483921 2147483928 2147483919 2147483921 2147483928 
2147483875 2147483674 2147483704 2147483714 2147483717 2147483718 2147483753 2147483674 2147483704 2147483714 2147483717 2147483718 2147483753 2147483919 2147483921 2147483928 2147483919 2147483921 2147483928 
2147483877 2147483674 2147483704 2147483714 2147483717 2147483718 2147483753 2147483674 2147483704 2147483714 2147483717 2147483718 2147483753 2147483919 2147483921 2147483928 2147483919 2147483921 2147483928 
2147483881 2147483674 2147483704 2147483714 2147483717 2147483718 2147483753 2147483674 2147483704 2147483714 2147483717 2147483718 2147483753 2147483919 2147483921 2147483928 49 52 54 57 53 127 128 129 130 2147483919 2147483921 2147483928 
2147483882 2147483674 2147483704 2147483714 2147483717 2147483718 2147483753 2147483674 2147483704 2147483714 2147483717 2147483718 2147483753 2147483919 2147483921 2147483928 2147483919 2147483921 2147483928 
2147483890 2147483674 2147483704 2147483714 2147483717 2147483718 2147483753 2147483674 2147483704 2147483714 2147483717 2147483718 2147483753 2147483919 2147483928 2147483919 2147483928 
2147483892 2147483674 2147483704 2147483714 2147483717 2147483718 2147483753 2147483674 2147483704 2147483714 2147483717 2147483718 2147483753 2147483919 2147483928 2147483919 2147483928 
2147483896 2147483674 2147483704 2147483714 2147483717 2147483718 2147483753 2147483674 2147483704 2147483714 2147483717 2147483718 2147483753 2147483919 2147483928 49 52 54 57 53 127 128 129 130 2147483919 2147483928 
2147483897 2147483674 2147483714 2147483717 2147483718 2147483753 2147483674 2147483714 2147483717 2147483718 2147483753 2147483919 2147483928 2147483919 2147483928 
2147483899 2147483714 2147483715 2147483716 2147483717 2147483718 2147483714 2147483715 2147483716 2147483717 2147483718 22 25 27 32 26 263 264 265 266 
2147483900 2147483656 2147483660 2147483663 2147483714 2147483715 2147483716 2147483717 2147483718 2147483739 2147483743 2147483747 2147483749 2147483751 2147483752 2147483755 2147483656 2147483660 2147483663 2147483714 2147483715 2147483716 2147483717 2147483718 2147483739 2147483743 2147483747 2147483749 2147483751 2147483752 2147483755 2147483903 2147483925 2147483928 49 52 54 57 53 127 128 129 130 2147483903 2147483925 2147483928 
2147483903 2147483656 2147483660 2147483663 2147483714 2147483715 2147483716 2147483717 2147483718 2147483739 2147483743 2147483747 2147483749 2147483751 2147483752 2147483753 2147483755 2147483900 2147483656 2147483660 2147483663 2147483714 2147483715 2147483716 2147483717 2147483718 2147483739 2147483743 2147483747 2147483749 2147483751 2147483752 2147483753 2147483755 2147483900 2147483925 2147483928 49 52 54 57 53 127 128 129 130 2147483925 2147483928 
2147483910 2147483672 2147483674 2147483676 2147483680 2147483683 2147483714 2147483716 2147483717 2147483718 2147483753 2147483775 2147483779 2147483783 2147483785 2147483787 2147483788 2147483791 2147483672 2147483674 2147483676 2147483680 2147483683 2147483714 2147483716 2147483717 2147483718 2147483753 2147483775 2147483779 2147483783 2147483785 2147483787 2147483788 2147483791 2147483926 2147483927 2147483928 49 52 54 57 53 127 128 129 130 2147483926 2147483927 2147483928 
2147483918 2147483674 2147483691 2147483693 2147483704 2147483714 2147483717 2147483718 2147483753 2147483789 2147483800 2147483823 2147483825 2147483829 2147483830 2147483853 2147483855 2147483860 2147483863 2147483674 2147483691 2147483693 2147483704 2147483714 2147483717 2147483718 2147483753 2147483789 2147483800 2147483823 2147483825 2147483829 2147483830 2147483853 2147483855 2147483860 2147483863 2147483919 2147483921 2147483928 54 49 52 57 53 127 128 129 130 2147483919 2147483921 2147483928 
2147483919 2147483674 2147483704 2147483714 2147483717 2147483718 2147483753 2147483853 2147483855 2147483860 2147483863 2147483866 2147483867 2147483875 2147483877 2147483881 2147483882 2147483890 2147483892 2147483896 2147483897 2147483918 2147483674 2147483704 2147483714 2147483717 2147483718 2147483753 2147483853 2147483855 2147483860 2147483863 2147483866 2147483867 2147483875 2147483877 2147483881 2147483882 2147483890 2147483892 2147483896 2147483897 2147483918 2147483921 2147483928 49 52 54 57 53 127 128 129 130 2147483921 2147483928 
2147483921 2147483674 2147483704 2147483714 2147483717 2147483718 2147483753 2147483866 2147483867 2147483875 2147483877 2147483881 2147483882 2147483918 2147483919 2147483674 2147483704 2147483714 2147483717 2147483718 2147483753 2147483866 2147483867 2147483875 2147483877 2147483881 2147483882 2147483918 2147483919 2147483928 57 49 52 54 53 127 128 129 130 2147483928 
2147483925 2147483656 2147483714 2147483715 2147483716 2147483717 2147483718 2147483739 2147483900 2147483903 2147483656 2147483714 2147483715 2147483716 2147483717 2147483718 2147483739 2147483900 2147483903 2147483928 2147483928 
2147483926 2147483674 2147483676 2147483680 2147483683 2147483714 2147483716 2147483717 2147483718 2147483753 2147483775 2147483779 2147483783 2147483785 2147483787 2147483788 2147483789 2147483791 2147483910 2147483674 2147483676 2147483680 2147483683 2147483714 2147483716 2147483717 2147483718 2147483753 2147483775 2147483779 2147483783 2147483785 2147483787 2147483788 2147483789 2147483791 2147483910 2147483927 2147483928 49 52 54 57 53 127 128 129 130 2147483927 2147483928 
2147483927 2147483674 2147483676 2147483714 2147483716 2147483717 2147483718 2147483753 2147483775 2147483910 2147483926 2147483674 2147483676 2147483714 2147483716 2147483717 2147483718 2147483753 2147483775 2147483910 2147483926 2147483928 2147483928 
2147483928 2147483656 2147483660 2147483663 2147483672 2147483674 2147483676 2147483680 2147483683 2147483691 2147483693 2147483704 2147483714 2147483715 2147483716 2147483717 2147483718 2147483739 2147483743 2147483747 2147483749 2147483751 2147483752 2147483753 2147483755 2147483775 2147483779 2147483783 2147483785 2147483787 2147483788 2147483789 2147483791 2147483795 2147483800 2147483808 2147483810 2147483814 2147483816 2147483823 2147483825 2147483829 2147483830 2147483837 2147483839 2147483843 2147483844 2147483853 2147483855 2147483860 2147483863 2147483866 2147483867 2147483875 2147483877 2147483881 2147483882 2147483890 2147483892 2147483896 2147483897 2147483900 2147483903 2147483910 2147483918 2147483919 2147483921 2147483925 2147483926 2147483927 2147483656 2147483660 2147483663 2147483672 2147483674 2147483676 2147483680 2147483683 2147483691 2147483693 2147483704 2147483714 2147483715 2147483716 2147483717 2147483718 2147483739 2147483743 2147483747 2147483749 2147483751 2147483752 2147483753 2147483755 2147483775 2147483779 2147483783 2147483785 2147483787 2147483788 2147483789 2147483791 2147483795 2147483800 2147483808 2147483810 2147483814 2147483816 2147483823 2147483825 2147483829 2147483830 2147483837 2147483839 2147483843 2147483844 2147483853 2147483855 2147483860 2147483863 2147483866 2147483867 2147483875 2147483877 2147483881 2147483882 2147483890 2147483892 2147483896 2147483897 2147483900 2147483903 2147483910 2147483918 2147483919 2147483921 2147483925 2147483926 2147483927 49 52 54 57 53 127 128 129 130 
